words_train/words_910_SAT.qaiger
aag 46 16 0 1 30
32
16
8
22
20
12
26
30
6
4
18
10
28
2
14
24
93
34 30 15
36 28 13
38 27 10
40 21 4
42 41 3
44 22 7
46 20 5
48 47 45
50 48 43
52 25 8
54 23 6
56 55 53
58 56 51
60 24 9
62 26 11
64 63 61
66 64 59
68 67 39
70 69 37
72 31 14
74 29 12
76 75 73
78 76 71
80 79 35
82 33 16
84 32 17
86 85 83
88 87 80
90 86 81
92 91 89
i0 1 x[7]
i1 2 y[7]
i2 2 y[3]
i3 1 x[2]
i4 1 x[1]
i5 2 y[5]
i6 1 x[4]
i7 1 x[6]
i8 2 y[2]
i9 2 y[1]
i10 1 x[0]
i11 2 y[4]
i12 1 x[5]
i13 2 y[0]
i14 2 y[6]
i15 1 x[3]
o0 bv[0]
c
simplified
  >
    or
      1
      subtract
        1
        subtract
          1
          1 x
    2 y
