words_train/words_910_SAT.qaiger.qdimacs
p cnf 46 91
a 9 10 11 12 13 14 15 16 0
e 1 2 3 4 5 6 7 8 17 18 19 20 21 22 23 24 25 26 27 28 29 30 31 32 33 34 35 36 37 38 39 40 41 42 43 44 45 46 0
-15 7 17 0
15 -17 0
-7 -17 0
-14 6 18 0
14 -18 0
-6 -18 0
13 -5 19 0
-13 -19 0
5 -19 0
10 -2 20 0
-10 -20 0
2 -20 0
20 1 21 0
-20 -21 0
-1 -21 0
-11 3 22 0
11 -22 0
-3 -22 0
-10 2 23 0
10 -23 0
-2 -23 0
23 22 24 0
-23 -24 0
-22 -24 0
-24 21 25 0
24 -25 0
-21 -25 0
12 -4 26 0
-12 -26 0
4 -26 0
11 -3 27 0
-11 -27 0
3 -27 0
27 26 28 0
-27 -28 0
-26 -28 0
-28 25 29 0
28 -29 0
-25 -29 0
-12 4 30 0
12 -30 0
-4 -30 0
-13 5 31 0
13 -31 0
-5 -31 0
31 30 32 0
-31 -32 0
-30 -32 0
-32 29 33 0
32 -33 0
-29 -33 0
33 19 34 0
-33 -34 0
-19 -34 0
34 18 35 0
-34 -35 0
-18 -35 0
15 -7 36 0
-15 -36 0
7 -36 0
14 -6 37 0
-14 -37 0
6 -37 0
37 36 38 0
-37 -38 0
-36 -38 0
-38 35 39 0
38 -39 0
-35 -39 0
39 17 40 0
-39 -40 0
-17 -40 0
16 -8 41 0
-16 -41 0
8 -41 0
-16 8 42 0
16 -42 0
-8 -42 0
42 41 43 0
-42 -43 0
-41 -43 0
43 -40 44 0
-43 -44 0
40 -44 0
-43 40 45 0
43 -45 0
-40 -45 0
45 44 46 0
-45 -46 0
-44 -46 0
-46 0
